p cnf 150 225
1 79 0
1 63 0
1 44 0
2 115 0
2 89 0
2 127 0
3 140 0
3 83 0
3 28 0
4 139 0
4 29 0
4 50 0
5 9 0
5 60 0
5 61 0
6 30 0
6 122 0
6 127 0
7 13 0
7 70 0
7 77 0
8 54 0
8 51 0
8 11 0
9 74 0
9 114 0
10 101 0
10 108 0
10 142 0
11 70 0
11 57 0
12 60 0
12 103 0
12 92 0
13 120 0
13 109 0
14 113 0
14 46 0
14 103 0
15 107 0
15 116 0
15 132 0
16 147 0
16 107 0
16 21 0
17 73 0
17 150 0
17 112 0
18 125 0
18 134 0
18 40 0
19 115 0
19 26 0
19 133 0
20 138 0
20 62 0
20 72 0
21 90 0
21 93 0
22 142 0
22 117 0
22 56 0
23 129 0
23 86 0
23 123 0
24 147 0
24 41 0
24 55 0
25 60 0
25 142 0
25 48 0
26 136 0
26 144 0
27 87 0
27 148 0
27 48 0
28 136 0
28 78 0
29 64 0
29 143 0
30 41 0
30 51 0
31 82 0
31 65 0
31 59 0
32 67 0
32 149 0
32 114 0
33 140 0
33 71 0
33 130 0
34 100 0
34 78 0
34 83 0
35 105 0
35 129 0
35 83 0
36 39 0
36 43 0
36 91 0
37 101 0
37 112 0
37 65 0
38 74 0
38 52 0
38 45 0
39 137 0
39 85 0
40 75 0
40 66 0
41 130 0
42 110 0
42 54 0
42 146 0
43 74 0
43 125 0
44 117 0
44 134 0
45 106 0
45 99 0
46 47 0
46 52 0
47 75 0
47 135 0
48 126 0
49 69 0
49 84 0
49 77 0
50 116 0
50 76 0
51 141 0
52 94 0
53 94 0
53 124 0
53 141 0
54 75 0
55 104 0
55 128 0
56 138 0
56 102 0
57 101 0
57 91 0
58 88 0
58 150 0
58 109 0
59 68 0
59 69 0
61 102 0
61 76 0
62 63 0
62 135 0
63 89 0
64 96 0
64 143 0
65 94 0
66 91 0
66 76 0
67 128 0
67 89 0
68 96 0
68 148 0
69 72 0
70 124 0
71 88 0
71 119 0
72 95 0
73 141 0
73 105 0
77 90 0
78 108 0
79 122 0
79 113 0
80 134 0
80 105 0
80 146 0
81 145 0
81 93 0
81 131 0
82 123 0
82 111 0
84 92 0
84 146 0
85 150 0
85 149 0
86 110 0
86 133 0
87 149 0
87 123 0
88 110 0
90 136 0
92 144 0
93 104 0
95 117 0
95 131 0
96 121 0
97 100 0
97 106 0
97 98 0
98 115 0
98 137 0
99 138 0
99 144 0
100 140 0
102 129 0
103 124 0
104 135 0
106 118 0
107 119 0
108 145 0
109 145 0
111 147 0
111 118 0
112 132 0
113 128 0
114 132 0
116 139 0
118 120 0
119 143 0
120 126 0
121 137 0
121 148 0
122 126 0
125 130 0
127 133 0
131 139 0
g -91